<?xml version = "1.0" encoding="UTF-8" standalone="yes"?>
<CPLEXSolution version="1.2">
 <header
   problemName="IloCplex"
   solutionName="p0"
   solutionIndex="-1"
   objectiveValue="492760"
   solutionTypeValue="3"
   solutionTypeString="primal"
   solutionStatusValue="127"
   solutionStatusString="integer feasible solution"
   solutionMethodString="mip"
   primalFeasible="0"
   dualFeasible="0"
   writeLevel="3"/>
 <quality
   epInt="1.0000000000000001e-05"
   epRHS="9.9999999999999995e-07"
   maxIntInfeas="0"
   maxPrimalInfeas="0"
   maxX="1"
   maxSlack="1"/>
 <variables>
  <variable name="w0_2" index="2" value="1"/>
  <variable name="w0_3" index="3" value="1"/>
  <variable name="w0_4" index="4" value="1"/>
  <variable name="w0_5" index="5" value="1"/>
  <variable name="w0_6" index="6" value="1"/>
  <variable name="w1_2" index="16" value="1"/>
  <variable name="w1_3" index="17" value="1"/>
  <variable name="w1_4" index="18" value="1"/>
  <variable name="w1_5" index="19" value="1"/>
  <variable name="w1_6" index="20" value="1"/>
  <variable name="w4_2" index="58" value="1"/>
  <variable name="w4_3" index="59" value="1"/>
  <variable name="w4_4" index="60" value="1"/>
  <variable name="w4_5" index="61" value="1"/>
  <variable name="w4_6" index="62" value="1"/>
  <variable name="w5_2" index="72" value="1"/>
  <variable name="w5_3" index="73" value="1"/>
  <variable name="w5_4" index="74" value="1"/>
  <variable name="w5_5" index="75" value="1"/>
  <variable name="w5_6" index="76" value="1"/>
  <variable name="w8_2" index="114" value="1"/>
  <variable name="w8_3" index="115" value="1"/>
  <variable name="w8_4" index="116" value="1"/>
  <variable name="w8_5" index="117" value="1"/>
  <variable name="w8_6" index="118" value="1"/>
  <variable name="w9_2" index="128" value="1"/>
  <variable name="w9_3" index="129" value="1"/>
  <variable name="w9_4" index="130" value="1"/>
  <variable name="w9_5" index="131" value="1"/>
  <variable name="w9_6" index="132" value="1"/>
  <variable name="w10_2" index="142" value="1"/>
  <variable name="w10_3" index="143" value="1"/>
  <variable name="w10_4" index="144" value="1"/>
  <variable name="w10_5" index="145" value="1"/>
  <variable name="w10_6" index="146" value="1"/>
  <variable name="k0" index="196" value="1"/>
  <variable name="k1" index="197" value="1"/>
  <variable name="k4" index="200" value="1"/>
  <variable name="k5" index="201" value="1"/>
  <variable name="k8" index="204" value="1"/>
  <variable name="k9" index="205" value="1"/>
  <variable name="k10" index="206" value="1"/>
  <variable name="u2" index="212" value="1"/>
  <variable name="u3" index="213" value="1"/>
  <variable name="u4" index="214" value="1"/>
  <variable name="u5" index="215" value="1"/>
  <variable name="u6" index="216" value="1"/>
  <variable name="x0_9" index="233" value="1"/>
  <variable name="x1_33" index="357" value="1"/>
  <variable name="x2_88" index="512" value="1"/>
  <variable name="x3_74" index="598" value="1"/>
  <variable name="x4_63" index="687" value="1"/>
  <variable name="x5_65" index="789" value="1"/>
  <variable name="x6_14" index="838" value="1"/>
  <variable name="x7_61" index="985" value="1"/>
  <variable name="x8_22" index="1046" value="1"/>
  <variable name="x9_86" index="1210" value="1"/>
  <variable name="x10_27" index="1251" value="1"/>
  <variable name="x11_83" index="1407" value="1"/>
  <variable name="x12_32" index="1456" value="1"/>
  <variable name="x13_16" index="1540" value="1"/>
  <variable name="x14_6" index="1630" value="1"/>
  <variable name="x15_21" index="1745" value="1"/>
  <variable name="x16_13" index="1837" value="1"/>
  <variable name="x17_96" index="2020" value="1"/>
  <variable name="x18_48" index="2072" value="1"/>
  <variable name="x19_82" index="2206" value="1"/>
  <variable name="x20_25" index="2249" value="1"/>
  <variable name="x21_15" index="2339" value="1"/>
  <variable name="x22_8" index="2432" value="1"/>
  <variable name="x23_38" index="2562" value="1"/>
  <variable name="x24_77" index="2701" value="1"/>
  <variable name="x25_20" index="2744" value="1"/>
  <variable name="x26_31" index="2855" value="1"/>
  <variable name="x27_10" index="2934" value="1"/>
  <variable name="x28_69" index="3093" value="1"/>
  <variable name="x29_34" index="3158" value="1"/>
  <variable name="x30_85" index="3309" value="1"/>
  <variable name="x31_26" index="3350" value="1"/>
  <variable name="x32_12" index="3436" value="1"/>
  <variable name="x33_1" index="3525" value="1"/>
  <variable name="x34_29" index="3653" value="1"/>
  <variable name="x35_99" index="3823" value="1"/>
  <variable name="x36_44" index="3868" value="1"/>
  <variable name="x37_54" index="3978" value="1"/>
  <variable name="x38_23" index="4047" value="1"/>
  <variable name="x39_62" index="4186" value="1"/>
  <variable name="x40_75" index="4299" value="1"/>
  <variable name="x41_89" index="4413" value="1"/>
  <variable name="x42_87" index="4511" value="1"/>
  <variable name="x43_60" index="4584" value="1"/>
  <variable name="x44_36" index="4660" value="1"/>
  <variable name="x45_81" index="4805" value="1"/>
  <variable name="x46_2" index="4826" value="1"/>
  <variable name="x47_58" index="4982" value="1"/>
  <variable name="x48_18" index="5042" value="1"/>
  <variable name="x49_72" index="5196" value="1"/>
  <variable name="x50_46" index="5270" value="1"/>
  <variable name="x51_78" index="5402" value="1"/>
  <variable name="x52_59" index="5483" value="1"/>
  <variable name="x53_94" index="5618" value="1"/>
  <variable name="x54_37" index="5661" value="1"/>
  <variable name="x55_93" index="5817" value="1"/>
  <variable name="x56_95" index="5919" value="1"/>
  <variable name="x57_51" index="5975" value="1"/>
  <variable name="x58_47" index="6071" value="1"/>
  <variable name="x59_52" index="6176" value="1"/>
  <variable name="x60_43" index="6267" value="1"/>
  <variable name="x61_7" index="6331" value="1"/>
  <variable name="x62_39" index="6463" value="1"/>
  <variable name="x63_4" index="6528" value="1"/>
  <variable name="x64_68" index="6692" value="1"/>
  <variable name="x65_5" index="6729" value="1"/>
  <variable name="x66_70" index="6894" value="1"/>
  <variable name="x67_97" index="7021" value="1"/>
  <variable name="x68_64" index="7088" value="1"/>
  <variable name="x69_28" index="7152" value="1"/>
  <variable name="x70_66" index="7290" value="1"/>
  <variable name="x71_76" index="7400" value="1"/>
  <variable name="x72_49" index="7473" value="1"/>
  <variable name="x73_92" index="7616" value="1"/>
  <variable name="x74_3" index="7627" value="1"/>
  <variable name="x75_40" index="7764" value="1"/>
  <variable name="x76_71" index="7895" value="1"/>
  <variable name="x77_24" index="7948" value="1"/>
  <variable name="x78_42" index="8066" value="1"/>
  <variable name="x79_90" index="8214" value="1"/>
  <variable name="x80_98" index="8322" value="1"/>
  <variable name="x81_45" index="8369" value="1"/>
  <variable name="x82_19" index="8443" value="1"/>
  <variable name="x83_11" index="8535" value="1"/>
  <variable name="x84_91" index="8715" value="1"/>
  <variable name="x85_30" index="8754" value="1"/>
  <variable name="x86_79" index="8903" value="1"/>
  <variable name="x87_56" index="8980" value="1"/>
  <variable name="x88_0" index="9024" value="1"/>
  <variable name="x89_41" index="9165" value="1"/>
  <variable name="x90_35" index="9259" value="1"/>
  <variable name="x91_84" index="9408" value="1"/>
  <variable name="x92_73" index="9497" value="1"/>
  <variable name="x93_55" index="9579" value="1"/>
  <variable name="x94_53" index="9677" value="1"/>
  <variable name="x95_57" index="9781" value="1"/>
  <variable name="x96_17" index="9841" value="1"/>
  <variable name="x97_67" index="9991" value="1"/>
  <variable name="x98_80" index="10104" value="1"/>
  <variable name="x99_50" index="10174" value="1"/>
 </variables>
</CPLEXSolution>
